
;this file is automatically generated: Thu Jan 02 16:54:47 GMT 2020

;declarations generated

(declare-fun type_61a25c1d_8358_49bc_92cf_6c5bc2c1b176_Class2 ( Int) Bool)
(declare-fun type_61a25c1d_8358_49bc_92cf_6c5bc2c1b176_Class0 ( Int) Bool)
(declare-fun oclExcludes ( Int Int) Bool)
(declare-fun type_61a25c1d_8358_49bc_92cf_6c5bc2c1b176_Class56 ( Int) Bool)
(declare-fun Cardinality ( Int) Int)
(declare-fun type_61a25c1d_8358_49bc_92cf_6c5bc2c1b176_Class36 ( Int) Bool)
(declare-fun type_61a25c1d_8358_49bc_92cf_6c5bc2c1b176_Class27 ( Int) Bool)
(declare-fun type_61a25c1d_8358_49bc_92cf_6c5bc2c1b176_Class29 ( Int) Bool)
(declare-fun oclSelect ( Int Bool) Int)
(declare-fun obj_15723c60_502f_43d4_9bd5_8a83b0955062 ( Int) Int)
(declare-fun Enum0 ( Int) Int)
(declare-fun Enum1 ( Int) Int)
(declare-fun Enum2 ( Int) Int)
(declare-fun container_ ( Int) Int)
(declare-fun oclIncludes ( Int Int) Bool)
(declare-fun class0_Class0BoolAttr1 ( Int) Bool)
(declare-fun class0_Class0BoolAttr2 ( Int) Bool)
(declare-fun ObjAt ( Int Int) Int)

;formula(s) generated
(assert (! (or (forall ((v Int)) (=> (and (and (and (and (and ( type_61a25c1d_8358_49bc_92cf_6c5bc2c1b176_Class0 v )  ( type_61a25c1d_8358_49bc_92cf_6c5bc2c1b176_Class56 v ) ) ( type_61a25c1d_8358_49bc_92cf_6c5bc2c1b176_Class36 v ) ) ( type_61a25c1d_8358_49bc_92cf_6c5bc2c1b176_Class27 v ) ) ( type_61a25c1d_8358_49bc_92cf_6c5bc2c1b176_Class29 v ) ) ( type_61a25c1d_8358_49bc_92cf_6c5bc2c1b176_Class2 v ) ) ( class0_Class0BoolAttr1 ( obj_15723c60_502f_43d4_9bd5_8a83b0955062 v )  ) )) (forall ((v Int)) (=> (and (and (and (and (and ( type_61a25c1d_8358_49bc_92cf_6c5bc2c1b176_Class0 v )  ( type_61a25c1d_8358_49bc_92cf_6c5bc2c1b176_Class56 v ) ) ( type_61a25c1d_8358_49bc_92cf_6c5bc2c1b176_Class36 v ) ) ( type_61a25c1d_8358_49bc_92cf_6c5bc2c1b176_Class27 v ) ) ( type_61a25c1d_8358_49bc_92cf_6c5bc2c1b176_Class29 v ) ) ( type_61a25c1d_8358_49bc_92cf_6c5bc2c1b176_Class2 v ) ) ( class0_Class0BoolAttr2 ( obj_15723c60_502f_43d4_9bd5_8a83b0955062 v )  ) ))):named l0))
(assert (exists ((o Int)) (and (and (and (and (and ( type_61a25c1d_8358_49bc_92cf_6c5bc2c1b176_Class0 ( obj_15723c60_502f_43d4_9bd5_8a83b0955062 o )  )  ( type_61a25c1d_8358_49bc_92cf_6c5bc2c1b176_Class56 ( obj_15723c60_502f_43d4_9bd5_8a83b0955062 o )  ) ) ( type_61a25c1d_8358_49bc_92cf_6c5bc2c1b176_Class36 ( obj_15723c60_502f_43d4_9bd5_8a83b0955062 o )  ) ) ( type_61a25c1d_8358_49bc_92cf_6c5bc2c1b176_Class27 ( obj_15723c60_502f_43d4_9bd5_8a83b0955062 o )  ) ) ( type_61a25c1d_8358_49bc_92cf_6c5bc2c1b176_Class29 ( obj_15723c60_502f_43d4_9bd5_8a83b0955062 o )  ) ) ( type_61a25c1d_8358_49bc_92cf_6c5bc2c1b176_Class2 ( obj_15723c60_502f_43d4_9bd5_8a83b0955062 o )  ) )))

 ;end of formula 